max:+ x0 + x1 + x2 + x3 + x4 + x5 ;

 /* sigma variables*/
x0 = 30.0572;
x1 = x0 + + 0.16666666666666669 x2+ 0.16666666666666669 x5+ 16.666666666666668;
x2 = 8;
x3 = x2 + + 0.16666666666666669 x0+ 0.16666666666666669 x5+ 16.666666666666668;
x4 = 8;
x5 = 48.0572;
